p cnf 150 938
1 2 3 4 5 0
6 7 8 9 10 0
11 12 13 14 15 0
16 17 18 19 20 0
21 22 23 24 25 0
26 27 28 29 30 0
31 32 33 34 35 0
36 37 38 39 40 0
41 42 43 44 45 0
46 47 48 49 50 0
51 52 53 54 55 0
56 57 58 59 60 0
61 62 63 64 65 0
66 67 68 69 70 0
71 72 73 74 75 0
76 77 78 79 80 0
81 82 83 84 85 0
86 87 88 89 90 0
91 92 93 94 95 0
96 97 98 99 100 0
101 102 103 104 105 0
106 107 108 109 110 0
111 112 113 114 115 0
116 117 118 119 120 0
121 122 123 124 125 0
126 127 128 129 130 0
131 132 133 134 135 0
136 137 138 139 140 0
141 142 143 144 145 0
146 147 148 149 150 0
-1 -2 0
-1 -3 0
-1 -4 0
-1 -5 0
-2 -3 0
-2 -4 0
-2 -5 0
-3 -4 0
-3 -5 0
-4 -5 0
-6 -7 0
-6 -8 0
-6 -9 0
-6 -10 0
-7 -8 0
-7 -9 0
-7 -10 0
-8 -9 0
-8 -10 0
-9 -10 0
-11 -12 0
-11 -13 0
-11 -14 0
-11 -15 0
-12 -13 0
-12 -14 0
-12 -15 0
-13 -14 0
-13 -15 0
-14 -15 0
-16 -17 0
-16 -18 0
-16 -19 0
-16 -20 0
-17 -18 0
-17 -19 0
-17 -20 0
-18 -19 0
-18 -20 0
-19 -20 0
-21 -22 0
-21 -23 0
-21 -24 0
-21 -25 0
-22 -23 0
-22 -24 0
-22 -25 0
-23 -24 0
-23 -25 0
-24 -25 0
-26 -27 0
-26 -28 0
-26 -29 0
-26 -30 0
-27 -28 0
-27 -29 0
-27 -30 0
-28 -29 0
-28 -30 0
-29 -30 0
-31 -32 0
-31 -33 0
-31 -34 0
-31 -35 0
-32 -33 0
-32 -34 0
-32 -35 0
-33 -34 0
-33 -35 0
-34 -35 0
-36 -37 0
-36 -38 0
-36 -39 0
-36 -40 0
-37 -38 0
-37 -39 0
-37 -40 0
-38 -39 0
-38 -40 0
-39 -40 0
-41 -42 0
-41 -43 0
-41 -44 0
-41 -45 0
-42 -43 0
-42 -44 0
-42 -45 0
-43 -44 0
-43 -45 0
-44 -45 0
-46 -47 0
-46 -48 0
-46 -49 0
-46 -50 0
-47 -48 0
-47 -49 0
-47 -50 0
-48 -49 0
-48 -50 0
-49 -50 0
-51 -52 0
-51 -53 0
-51 -54 0
-51 -55 0
-52 -53 0
-52 -54 0
-52 -55 0
-53 -54 0
-53 -55 0
-54 -55 0
-56 -57 0
-56 -58 0
-56 -59 0
-56 -60 0
-57 -58 0
-57 -59 0
-57 -60 0
-58 -59 0
-58 -60 0
-59 -60 0
-61 -62 0
-61 -63 0
-61 -64 0
-61 -65 0
-62 -63 0
-62 -64 0
-62 -65 0
-63 -64 0
-63 -65 0
-64 -65 0
-66 -67 0
-66 -68 0
-66 -69 0
-66 -70 0
-67 -68 0
-67 -69 0
-67 -70 0
-68 -69 0
-68 -70 0
-69 -70 0
-71 -72 0
-71 -73 0
-71 -74 0
-71 -75 0
-72 -73 0
-72 -74 0
-72 -75 0
-73 -74 0
-73 -75 0
-74 -75 0
-76 -77 0
-76 -78 0
-76 -79 0
-76 -80 0
-77 -78 0
-77 -79 0
-77 -80 0
-78 -79 0
-78 -80 0
-79 -80 0
-81 -82 0
-81 -83 0
-81 -84 0
-81 -85 0
-82 -83 0
-82 -84 0
-82 -85 0
-83 -84 0
-83 -85 0
-84 -85 0
-86 -87 0
-86 -88 0
-86 -89 0
-86 -90 0
-87 -88 0
-87 -89 0
-87 -90 0
-88 -89 0
-88 -90 0
-89 -90 0
-91 -92 0
-91 -93 0
-91 -94 0
-91 -95 0
-92 -93 0
-92 -94 0
-92 -95 0
-93 -94 0
-93 -95 0
-94 -95 0
-96 -97 0
-96 -98 0
-96 -99 0
-96 -100 0
-97 -98 0
-97 -99 0
-97 -100 0
-98 -99 0
-98 -100 0
-99 -100 0
-101 -102 0
-101 -103 0
-101 -104 0
-101 -105 0
-102 -103 0
-102 -104 0
-102 -105 0
-103 -104 0
-103 -105 0
-104 -105 0
-106 -107 0
-106 -108 0
-106 -109 0
-106 -110 0
-107 -108 0
-107 -109 0
-107 -110 0
-108 -109 0
-108 -110 0
-109 -110 0
-111 -112 0
-111 -113 0
-111 -114 0
-111 -115 0
-112 -113 0
-112 -114 0
-112 -115 0
-113 -114 0
-113 -115 0
-114 -115 0
-116 -117 0
-116 -118 0
-116 -119 0
-116 -120 0
-117 -118 0
-117 -119 0
-117 -120 0
-118 -119 0
-118 -120 0
-119 -120 0
-121 -122 0
-121 -123 0
-121 -124 0
-121 -125 0
-122 -123 0
-122 -124 0
-122 -125 0
-123 -124 0
-123 -125 0
-124 -125 0
-126 -127 0
-126 -128 0
-126 -129 0
-126 -130 0
-127 -128 0
-127 -129 0
-127 -130 0
-128 -129 0
-128 -130 0
-129 -130 0
-131 -132 0
-131 -133 0
-131 -134 0
-131 -135 0
-132 -133 0
-132 -134 0
-132 -135 0
-133 -134 0
-133 -135 0
-134 -135 0
-136 -137 0
-136 -138 0
-136 -139 0
-136 -140 0
-137 -138 0
-137 -139 0
-137 -140 0
-138 -139 0
-138 -140 0
-139 -140 0
-141 -142 0
-141 -143 0
-141 -144 0
-141 -145 0
-142 -143 0
-142 -144 0
-142 -145 0
-143 -144 0
-143 -145 0
-144 -145 0
-146 -147 0
-146 -148 0
-146 -149 0
-146 -150 0
-147 -148 0
-147 -149 0
-147 -150 0
-148 -149 0
-148 -150 0
-149 -150 0
-4 -9 0
-5 -7 0
-4 -11 0
-4 -14 0
-5 -16 0
-4 -16 0
-3 -23 0
-1 -25 0
-5 -28 0
-4 -29 0
-4 -35 0
-3 -32 0
-2 -44 0
-1 -43 0
-5 -47 0
-4 -46 0
-5 -59 0
-5 -56 0
-3 -65 0
-1 -64 0
-2 -69 0
-1 -67 0
-4 -77 0
-3 -79 0
-3 -87 0
-1 -89 0
-5 -101 0
-1 -102 0
-2 -109 0
-2 -108 0
-3 -113 0
-5 -114 0
-4 -118 0
-5 -116 0
-1 -127 0
-3 -129 0
-2 -134 0
-5 -133 0
-1 -136 0
-3 -137 0
-2 -144 0
-5 -145 0
-9 -11 0
-10 -14 0
-7 -19 0
-6 -19 0
-6 -28 0
-6 -27 0
-10 -34 0
-10 -32 0
-8 -36 0
-8 -38 0
-10 -49 0
-8 -46 0
-6 -58 0
-6 -59 0
-10 -61 0
-9 -63 0
-8 -66 0
-8 -68 0
-10 -71 0
-7 -75 0
-10 -77 0
-10 -80 0
-7 -83 0
-6 -84 0
-10 -87 0
-7 -90 0
-8 -91 0
-8 -94 0
-10 -100 0
-7 -99 0
-9 -103 0
-10 -104 0
-7 -110 0
-6 -106 0
-9 -113 0
-6 -113 0
-10 -116 0
-10 -119 0
-10 -125 0
-10 -121 0
-8 -130 0
-10 -127 0
-8 -132 0
-10 -134 0
-8 -147 0
-6 -147 0
-13 -20 0
-15 -18 0
-15 -24 0
-12 -21 0
-15 -30 0
-13 -27 0
-14 -32 0
-13 -35 0
-15 -37 0
-12 -38 0
-11 -45 0
-11 -41 0
-11 -46 0
-12 -48 0
-11 -54 0
-11 -55 0
-13 -59 0
-15 -60 0
-13 -62 0
-15 -63 0
-13 -68 0
-14 -67 0
-15 -75 0
-13 -72 0
-12 -82 0
-11 -84 0
-15 -94 0
-13 -91 0
-12 -102 0
-15 -104 0
-12 -108 0
-15 -106 0
-13 -116 0
-13 -117 0
-12 -122 0
-14 -121 0
-13 -134 0
-11 -135 0
-14 -136 0
-14 -138 0
-11 -145 0
-15 -142 0
-18 -25 0
-18 -23 0
-16 -33 0
-20 -31 0
-19 -46 0
-18 -49 0
-18 -51 0
-17 -53 0
-17 -70 0
-20 -66 0
-19 -78 0
-17 -77 0
-19 -81 0
-20 -85 0
-18 -101 0
-18 -103 0
-20 -110 0
-19 -106 0
-20 -111 0
-17 -114 0
-18 -117 0
-19 -118 0
-18 -133 0
-20 -134 0
-16 -137 0
-19 -139 0
-16 -147 0
-18 -149 0
-25 -29 0
-23 -29 0
-21 -44 0
-24 -41 0
-22 -46 0
-24 -47 0
-21 -51 0
-25 -51 0
-25 -61 0
-25 -64 0
-23 -80 0
-22 -76 0
-23 -82 0
-22 -84 0
-23 -93 0
-22 -91 0
-25 -103 0
-21 -101 0
-25 -108 0
-22 -108 0
-22 -124 0
-23 -123 0
-21 -127 0
-23 -126 0
-23 -134 0
-24 -135 0
-22 -139 0
-24 -136 0
-22 -143 0
-24 -145 0
-21 -146 0
-21 -150 0
-30 -39 0
-30 -38 0
-29 -42 0
-30 -42 0
-30 -52 0
-30 -54 0
-29 -56 0
-27 -59 0
-28 -63 0
-26 -64 0
-29 -75 0
-28 -71 0
-30 -79 0
-29 -80 0
-30 -83 0
-27 -83 0
-29 -90 0
-29 -86 0
-29 -93 0
-28 -91 0
-28 -96 0
-30 -99 0
-29 -104 0
-27 -103 0
-27 -111 0
-28 -115 0
-28 -122 0
-29 -122 0
-28 -139 0
-26 -139 0
-33 -37 0
-32 -39 0
-34 -49 0
-32 -50 0
-33 -61 0
-33 -63 0
-34 -72 0
-34 -71 0
-33 -76 0
-32 -79 0
-33 -87 0
-31 -87 0
-31 -92 0
-32 -94 0
-35 -98 0
-34 -99 0
-34 -102 0
-35 -103 0
-32 -106 0
-32 -110 0
-31 -114 0
-35 -115 0
-35 -119 0
-35 -118 0
-31 -123 0
-32 -121 0
-35 -126 0
-35 -127 0
-33 -132 0
-34 -133 0
-33 -144 0
-35 -142 0
-33 -147 0
-35 -149 0
-37 -47 0
-39 -49 0
-38 -57 0
-40 -59 0
-40 -64 0
-40 -65 0
-37 -73 0
-37 -71 0
-38 -77 0
-37 -80 0
-40 -84 0
-39 -84 0
-36 -89 0
-38 -88 0
-38 -95 0
-38 -92 0
-38 -101 0
-36 -105 0
-37 -106 0
-36 -109 0
-38 -112 0
-40 -111 0
-39 -120 0
-40 -116 0
-38 -123 0
-38 -124 0
-39 -128 0
-36 -127 0
-38 -140 0
-36 -139 0
-36 -142 0
-37 -143 0
-37 -146 0
-39 -147 0
-45 -50 0
-41 -47 0
-44 -55 0
-41 -54 0
-41 -59 0
-44 -59 0
-41 -61 0
-44 -62 0
-44 -69 0
-44 -66 0
-41 -78 0
-42 -79 0
-44 -85 0
-42 -81 0
-43 -89 0
-41 -89 0
-43 -93 0
-43 -94 0
-44 -114 0
-43 -111 0
-44 -121 0
-42 -123 0
-44 -129 0
-43 -128 0
-42 -137 0
-43 -137 0
-41 -142 0
-42 -142 0
-43 -149 0
-42 -146 0
-50 -53 0
-50 -55 0
-49 -63 0
-46 -61 0
-49 -66 0
-47 -68 0
-48 -71 0
-50 -75 0
-50 -83 0
-49 -84 0
-47 -100 0
-48 -97 0
-48 -107 0
-48 -106 0
-50 -116 0
-48 -118 0
-47 -124 0
-49 -125 0
-48 -128 0
-46 -130 0
-49 -138 0
-47 -138 0
-46 -148 0
-48 -150 0
-55 -58 0
-55 -56 0
-54 -65 0
-54 -63 0
-54 -67 0
-53 -68 0
-51 -71 0
-52 -73 0
-51 -76 0
-51 -79 0
-54 -94 0
-55 -91 0
-52 -100 0
-52 -98 0
-55 -102 0
-53 -103 0
-54 -113 0
-52 -111 0
-51 -128 0
-55 -127 0
-55 -137 0
-52 -140 0
-54 -144 0
-51 -145 0
-53 -147 0
-53 -150 0
-56 -62 0
-59 -61 0
-58 -71 0
-56 -74 0
-60 -76 0
-56 -76 0
-57 -83 0
-58 -82 0
-59 -89 0
-57 -87 0
-60 -97 0
-60 -96 0
-58 -104 0
-57 -103 0
-57 -110 0
-58 -106 0
-58 -113 0
-56 -115 0
-59 -116 0
-58 -116 0
-58 -123 0
-58 -125 0
-56 -132 0
-58 -135 0
-59 -140 0
-57 -138 0
-60 -144 0
-56 -145 0
-64 -68 0
-65 -67 0
-62 -74 0
-64 -73 0
-62 -77 0
-63 -80 0
-61 -89 0
-64 -89 0
-65 -93 0
-64 -92 0
-65 -99 0
-64 -99 0
-61 -103 0
-65 -101 0
-63 -113 0
-63 -115 0
-64 -128 0
-63 -127 0
-61 -134 0
-62 -133 0
-62 -144 0
-64 -145 0
-62 -150 0
-65 -146 0
-69 -75 0
-70 -74 0
-69 -76 0
-66 -77 0
-68 -86 0
-70 -88 0
-70 -95 0
-68 -93 0
-70 -96 0
-69 -97 0
-69 -101 0
-68 -102 0
-67 -107 0
-69 -106 0
-69 -130 0
-70 -126 0
-70 -131 0
-66 -135 0
-68 -139 0
-67 -140 0
-74 -78 0
-74 -76 0
-74 -89 0
-71 -87 0
-74 -97 0
-72 -96 0
-71 -103 0
-74 -104 0
-71 -107 0
-75 -107 0
-73 -113 0
-73 -114 0
-71 -122 0
-74 -121 0
-74 -126 0
-72 -126 0
-74 -132 0
-72 -134 0
-72 -139 0
-75 -140 0
-72 -141 0
-71 -144 0
-74 -150 0
-74 -146 0
-79 -82 0
-76 -83 0
-80 -87 0
-76 -90 0
-77 -94 0
-79 -93 0
-77 -97 0
-78 -100 0
-76 -101 0
-80 -102 0
-78 -110 0
-80 -106 0
-76 -122 0
-78 -122 0
-77 -137 0
-80 -136 0
-78 -144 0
-77 -143 0
-85 -93 0
-84 -92 0
-84 -96 0
-84 -98 0
-81 -112 0
-83 -115 0
-83 -116 0
-85 -120 0
-81 -124 0
-84 -121 0
-82 -139 0
-84 -139 0
-84 -141 0
-84 -142 0
-81 -148 0
-84 -149 0
-90 -93 0
-89 -94 0
-86 -103 0
-86 -101 0
-87 -114 0
-86 -115 0
-88 -123 0
-87 -124 0
-89 -133 0
-89 -135 0
-86 -139 0
-89 -136 0
-86 -144 0
-88 -142 0
-89 -147 0
-90 -146 0
-93 -98 0
-94 -96 0
-92 -106 0
-94 -110 0
-93 -119 0
-94 -116 0
-91 -123 0
-94 -121 0
-91 -134 0
-92 -133 0
-94 -147 0
-93 -148 0
-97 -103 0
-100 -102 0
-96 -108 0
-97 -107 0
-99 -111 0
-99 -115 0
-97 -119 0
-96 -118 0
-100 -123 0
-97 -124 0
-97 -126 0
-98 -127 0
-99 -137 0
-98 -136 0
-96 -143 0
-97 -144 0
-97 -150 0
-96 -150 0
-102 -109 0
-105 -109 0
-105 -111 0
-102 -112 0
-102 -119 0
-104 -118 0
-103 -122 0
-101 -124 0
-101 -126 0
-102 -126 0
-101 -132 0
-105 -135 0
-105 -140 0
-101 -138 0
-102 -146 0
-103 -149 0
-107 -112 0
-108 -111 0
-108 -117 0
-110 -119 0
-110 -123 0
-107 -121 0
-108 -128 0
-110 -130 0
-109 -140 0
-109 -139 0
-109 -148 0
-107 -147 0
-113 -119 0
-111 -118 0
-113 -124 0
-113 -125 0
-111 -126 0
-115 -130 0
-112 -133 0
-114 -134 0
-112 -136 0
-115 -137 0
-113 -143 0
-111 -142 0
-120 -121 0
-117 -124 0
-119 -129 0
-117 -129 0
-116 -140 0
-120 -139 0
-120 -150 0
-118 -147 0
-122 -130 0
-124 -128 0
-124 -139 0
-121 -136 0
-123 -145 0
-122 -143 0
-124 -146 0
-123 -149 0
-126 -144 0
-128 -144 0
-134 -142 0
-134 -141 0
-135 -147 0
-134 -147 0
-137 -145 0
-136 -141 0
